NAME 
OBJSENSE MAX
ROWS
 N  OBJ
 L  packing[0]
 L  packing[1]
 L  packing[2]
 L  packing[3]
 L  packing[4]
 L  packing[5]
 L  packing[6]
 L  packing[7]
 L  packing[8]
 L  packing[9]
 L  packing[10]
 L  packing[11]
 L  packing[12]
 L  packing[13]
 L  packing[14]
 L  packing[15]
 L  packing[16]
 L  packing[17]
 L  packing[18]
 L  packing[19]
 L  packing[20]
 L  packing[21]
 L  packing[22]
 L  packing[23]
 L  packing[24]
 L  packing[25]
 L  packing[26]
 L  packing[27]
 L  packing[28]
 L  packing[29]
 L  packing[30]
 L  packing[31]
 L  packing[32]
 L  packing[33]
 L  packing[34]
 L  packing[35]
 L  packing[36]
 L  packing[37]
 L  packing[38]
 L  packing[39]
 L  packing[40]
 L  packing[41]
 L  packing[42]
 L  packing[43]
 L  packing[44]
 L  packing[45]
 L  packing[46]
 L  packing[47]
 L  packing[48]
 L  packing[49]
 L  R59     
COLUMNS
    MARKER    'MARKER'                 'INTORG'
    x[1]      OBJ       53
    x[1]      packing[0]  92
    x[1]      packing[1]  156
    x[1]      packing[2]  124
    x[1]      packing[4]  12
    x[1]      packing[5]  117
    x[1]      packing[8]  153
    x[1]      packing[9]  19
    x[1]      packing[10]  40
    x[1]      packing[11]  145
    x[1]      packing[15]  6
    x[1]      packing[20]  34
    x[1]      packing[22]  118
    x[1]      packing[23]  46
    x[1]      packing[24]  18
    x[1]      packing[27]  159
    x[1]      packing[28]  108
    x[1]      packing[29]  199
    x[1]      packing[31]  198
    x[1]      packing[32]  186
    x[1]      packing[33]  183
    x[1]      packing[34]  125
    x[1]      packing[35]  15
    x[1]      packing[36]  107
    x[1]      packing[37]  112
    x[1]      packing[38]  147
    x[1]      packing[41]  196
    x[1]      packing[42]  133
    x[1]      packing[43]  77
    x[1]      packing[44]  24
    x[1]      packing[45]  3
    x[1]      packing[46]  81
    x[1]      packing[48]  141
    x[2]      OBJ       137
    x[2]      packing[0]  115
    x[2]      packing[1]  10
    x[2]      packing[2]  142
    x[2]      packing[3]  101
    x[2]      packing[4]  186
    x[2]      packing[5]  41
    x[2]      packing[6]  93
    x[2]      packing[7]  72
    x[2]      packing[8]  105
    x[2]      packing[9]  88
    x[2]      packing[11]  54
    x[2]      packing[12]  144
    x[2]      packing[14]  122
    x[2]      packing[15]  129
    x[2]      packing[16]  7
    x[2]      packing[17]  171
    x[2]      packing[18]  186
    x[2]      packing[20]  7
    x[2]      packing[25]  138
    x[2]      packing[26]  71
    x[2]      packing[27]  84
    x[2]      packing[28]  148
    x[2]      packing[30]  80
    x[2]      packing[31]  119
    x[2]      packing[32]  92
    x[2]      packing[33]  154
    x[2]      packing[34]  85
    x[2]      packing[36]  62
    x[2]      packing[38]  18
    x[2]      packing[41]  50
    x[2]      packing[43]  57
    x[2]      packing[44]  112
    x[2]      packing[46]  131
    x[2]      packing[47]  46
    x[2]      packing[48]  146
    x[2]      packing[49]  125
    x[2]      R59       1
    x[3]      OBJ       1
    x[3]      packing[1]  13
    x[3]      packing[2]  40
    x[3]      packing[3]  101
    x[3]      packing[4]  170
    x[3]      packing[5]  22
    x[3]      packing[6]  13
    x[3]      packing[7]  30
    x[3]      packing[8]  52
    x[3]      packing[9]  118
    x[3]      packing[10]  113
    x[3]      packing[11]  84
    x[3]      packing[12]  74
    x[3]      packing[13]  118
    x[3]      packing[14]  82
    x[3]      packing[16]  20
    x[3]      packing[17]  176
    x[3]      packing[18]  112
    x[3]      packing[19]  132
    x[3]      packing[21]  139
    x[3]      packing[22]  82
    x[3]      packing[23]  186
    x[3]      packing[24]  150
    x[3]      packing[25]  94
    x[3]      packing[26]  140
    x[3]      packing[27]  87
    x[3]      packing[29]  197
    x[3]      packing[31]  75
    x[3]      packing[34]  13
    x[3]      packing[36]  182
    x[3]      packing[37]  160
    x[3]      packing[38]  92
    x[3]      packing[40]  121
    x[3]      packing[41]  193
    x[3]      packing[42]  109
    x[3]      packing[43]  43
    x[3]      packing[44]  20
    x[3]      packing[45]  185
    x[3]      packing[46]  14
    x[3]      packing[47]  130
    x[3]      packing[48]  175
    x[3]      packing[49]  144
    x[4]      OBJ       157
    x[4]      packing[0]  156
    x[4]      packing[1]  110
    x[4]      packing[2]  96
    x[4]      packing[3]  79
    x[4]      packing[4]  56
    x[4]      packing[6]  142
    x[4]      packing[7]  41
    x[4]      packing[8]  159
    x[4]      packing[9]  140
    x[4]      packing[10]  53
    x[4]      packing[12]  199
    x[4]      packing[13]  126
    x[4]      packing[15]  106
    x[4]      packing[17]  73
    x[4]      packing[18]  107
    x[4]      packing[19]  34
    x[4]      packing[20]  37
    x[4]      packing[21]  154
    x[4]      packing[22]  78
    x[4]      packing[24]  123
    x[4]      packing[25]  45
    x[4]      packing[26]  153
    x[4]      packing[27]  153
    x[4]      packing[28]  129
    x[4]      packing[29]  18
    x[4]      packing[30]  22
    x[4]      packing[31]  15
    x[4]      packing[32]  78
    x[4]      packing[33]  191
    x[4]      packing[35]  165
    x[4]      packing[38]  84
    x[4]      packing[39]  69
    x[4]      packing[41]  12
    x[4]      packing[42]  102
    x[4]      packing[43]  168
    x[4]      packing[44]  13
    x[4]      packing[45]  92
    x[4]      packing[46]  35
    x[4]      packing[47]  57
    x[5]      OBJ       182
    x[5]      packing[0]  173
    x[5]      packing[1]  24
    x[5]      packing[2]  153
    x[5]      packing[3]  117
    x[5]      packing[4]  66
    x[5]      packing[5]  165
    x[5]      packing[7]  40
    x[5]      packing[9]  174
    x[5]      packing[11]  182
    x[5]      packing[12]  5
    x[5]      packing[13]  102
    x[5]      packing[14]  162
    x[5]      packing[15]  32
    x[5]      packing[16]  160
    x[5]      packing[17]  3
    x[5]      packing[19]  163
    x[5]      packing[20]  160
    x[5]      packing[21]  161
    x[5]      packing[23]  19
    x[5]      packing[24]  28
    x[5]      packing[27]  64
    x[5]      packing[28]  104
    x[5]      packing[29]  16
    x[5]      packing[30]  83
    x[5]      packing[32]  85
    x[5]      packing[34]  2
    x[5]      packing[35]  171
    x[5]      packing[36]  193
    x[5]      packing[38]  95
    x[5]      packing[39]  30
    x[5]      packing[41]  109
    x[5]      packing[42]  113
    x[5]      packing[44]  24
    x[5]      packing[46]  45
    x[5]      packing[47]  172
    x[5]      packing[48]  170
    x[5]      packing[49]  2
    x[5]      R59       1
    x[6]      OBJ       111
    x[6]      packing[1]  83
    x[6]      packing[2]  44
    x[6]      packing[4]  75
    x[6]      packing[6]  39
    x[6]      packing[7]  20
    x[6]      packing[8]  110
    x[6]      packing[9]  61
    x[6]      packing[11]  154
    x[6]      packing[12]  81
    x[6]      packing[17]  13
    x[6]      packing[21]  25
    x[6]      packing[23]  150
    x[6]      packing[24]  116
    x[6]      packing[25]  17
    x[6]      packing[26]  118
    x[6]      packing[28]  164
    x[6]      packing[29]  103
    x[6]      packing[30]  169
    x[6]      packing[32]  106
    x[6]      packing[33]  2
    x[6]      packing[34]  100
    x[6]      packing[37]  149
    x[6]      packing[38]  135
    x[6]      packing[39]  85
    x[6]      packing[41]  145
    x[6]      packing[42]  49
    x[6]      packing[43]  91
    x[6]      packing[45]  35
    x[6]      packing[46]  116
    x[6]      packing[47]  81
    x[6]      packing[48]  8
    x[6]      packing[49]  155
    x[7]      OBJ       21
    x[7]      packing[1]  153
    x[7]      packing[2]  180
    x[7]      packing[3]  146
    x[7]      packing[4]  192
    x[7]      packing[5]  131
    x[7]      packing[7]  111
    x[7]      packing[9]  34
    x[7]      packing[10]  26
    x[7]      packing[11]  47
    x[7]      packing[12]  172
    x[7]      packing[13]  121
    x[7]      packing[14]  164
    x[7]      packing[15]  137
    x[7]      packing[16]  91
    x[7]      packing[17]  93
    x[7]      packing[18]  164
    x[7]      packing[20]  64
    x[7]      packing[21]  9
    x[7]      packing[22]  100
    x[7]      packing[23]  106
    x[7]      packing[25]  31
    x[7]      packing[27]  26
    x[7]      packing[28]  146
    x[7]      packing[29]  35
    x[7]      packing[30]  197
    x[7]      packing[32]  195
    x[7]      packing[33]  20
    x[7]      packing[34]  144
    x[7]      packing[35]  38
    x[7]      packing[36]  183
    x[7]      packing[37]  152
    x[7]      packing[38]  75
    x[7]      packing[40]  127
    x[7]      packing[41]  195
    x[7]      packing[42]  69
    x[7]      packing[43]  180
    x[7]      packing[44]  146
    x[7]      packing[45]  178
    x[7]      packing[48]  122
    x[7]      packing[49]  197
    x[8]      OBJ       36
    x[8]      packing[0]  190
    x[8]      packing[2]  105
    x[8]      packing[3]  160
    x[8]      packing[4]  148
    x[8]      packing[5]  55
    x[8]      packing[7]  82
    x[8]      packing[8]  167
    x[8]      packing[9]  125
    x[8]      packing[10]  170
    x[8]      packing[11]  146
    x[8]      packing[12]  194
    x[8]      packing[13]  102
    x[8]      packing[14]  172
    x[8]      packing[15]  43
    x[8]      packing[16]  193
    x[8]      packing[17]  87
    x[8]      packing[18]  153
    x[8]      packing[19]  129
    x[8]      packing[20]  116
    x[8]      packing[21]  24
    x[8]      packing[23]  12
    x[8]      packing[24]  73
    x[8]      packing[26]  191
    x[8]      packing[27]  111
    x[8]      packing[29]  191
    x[8]      packing[31]  132
    x[8]      packing[32]  121
    x[8]      packing[33]  172
    x[8]      packing[35]  87
    x[8]      packing[36]  105
    x[8]      packing[37]  72
    x[8]      packing[39]  106
    x[8]      packing[40]  74
    x[8]      packing[41]  46
    x[8]      packing[42]  173
    x[8]      packing[46]  41
    x[8]      packing[47]  70
    x[8]      packing[48]  53
    x[8]      packing[49]  87
    x[9]      OBJ       134
    x[9]      packing[0]  74
    x[9]      packing[1]  191
    x[9]      packing[3]  114
    x[9]      packing[4]  189
    x[9]      packing[5]  190
    x[9]      packing[7]  54
    x[9]      packing[8]  102
    x[9]      packing[9]  159
    x[9]      packing[11]  17
    x[9]      packing[12]  2
    x[9]      packing[13]  181
    x[9]      packing[14]  61
    x[9]      packing[16]  26
    x[9]      packing[17]  28
    x[9]      packing[18]  60
    x[9]      packing[19]  60
    x[9]      packing[20]  110
    x[9]      packing[22]  126
    x[9]      packing[23]  132
    x[9]      packing[24]  136
    x[9]      packing[25]  152
    x[9]      packing[26]  2
    x[9]      packing[27]  17
    x[9]      packing[28]  162
    x[9]      packing[29]  15
    x[9]      packing[30]  106
    x[9]      packing[31]  135
    x[9]      packing[32]  24
    x[9]      packing[34]  53
    x[9]      packing[35]  122
    x[9]      packing[36]  94
    x[9]      packing[39]  89
    x[9]      packing[40]  178
    x[9]      packing[41]  57
    x[9]      packing[43]  149
    x[9]      packing[45]  117
    x[9]      packing[46]  153
    x[9]      packing[47]  26
    x[9]      packing[48]  36
    x[9]      R59       1
    x[10]     OBJ       151
    x[10]     packing[0]  14
    x[10]     packing[2]  124
    x[10]     packing[3]  65
    x[10]     packing[8]  168
    x[10]     packing[9]  101
    x[10]     packing[10]  145
    x[10]     packing[12]  183
    x[10]     packing[13]  48
    x[10]     packing[14]  11
    x[10]     packing[18]  64
    x[10]     packing[19]  186
    x[10]     packing[21]  5
    x[10]     packing[24]  59
    x[10]     packing[26]  175
    x[10]     packing[29]  44
    x[10]     packing[30]  48
    x[10]     packing[31]  161
    x[10]     packing[32]  195
    x[10]     packing[33]  18
    x[10]     packing[34]  186
    x[10]     packing[37]  183
    x[10]     packing[38]  175
    x[10]     packing[39]  132
    x[10]     packing[40]  64
    x[10]     packing[41]  30
    x[10]     packing[42]  198
    x[10]     packing[44]  14
    x[10]     packing[45]  147
    x[10]     packing[46]  90
    x[10]     packing[47]  67
    x[10]     R59       1
    x[11]     OBJ       20
    x[11]     packing[0]  15
    x[11]     packing[2]  97
    x[11]     packing[4]  65
    x[11]     packing[5]  130
    x[11]     packing[6]  125
    x[11]     packing[7]  15
    x[11]     packing[8]  183
    x[11]     packing[11]  43
    x[11]     packing[13]  174
    x[11]     packing[14]  180
    x[11]     packing[15]  164
    x[11]     packing[16]  75
    x[11]     packing[17]  150
    x[11]     packing[18]  154
    x[11]     packing[20]  61
    x[11]     packing[22]  28
    x[11]     packing[24]  56
    x[11]     packing[25]  103
    x[11]     packing[26]  147
    x[11]     packing[28]  142
    x[11]     packing[29]  74
    x[11]     packing[30]  114
    x[11]     packing[32]  118
    x[11]     packing[34]  74
    x[11]     packing[35]  16
    x[11]     packing[36]  25
    x[11]     packing[38]  162
    x[11]     packing[40]  16
    x[11]     packing[41]  177
    x[11]     packing[43]  57
    x[11]     packing[44]  181
    x[11]     packing[45]  135
    x[11]     packing[47]  80
    x[11]     packing[49]  110
    x[12]     OBJ       59
    x[12]     packing[2]  139
    x[12]     packing[3]  145
    x[12]     packing[4]  34
    x[12]     packing[5]  93
    x[12]     packing[6]  37
    x[12]     packing[9]  50
    x[12]     packing[10]  62
    x[12]     packing[11]  128
    x[12]     packing[12]  105
    x[12]     packing[14]  30
    x[12]     packing[15]  48
    x[12]     packing[16]  180
    x[12]     packing[17]  44
    x[12]     packing[19]  197
    x[12]     packing[20]  25
    x[12]     packing[21]  170
    x[12]     packing[24]  141
    x[12]     packing[25]  30
    x[12]     packing[26]  164
    x[12]     packing[27]  177
    x[12]     packing[28]  75
    x[12]     packing[29]  30
    x[12]     packing[31]  21
    x[12]     packing[33]  24
    x[12]     packing[35]  114
    x[12]     packing[37]  54
    x[12]     packing[38]  146
    x[12]     packing[39]  20
    x[12]     packing[40]  77
    x[12]     packing[42]  106
    x[12]     packing[44]  193
    x[12]     packing[45]  55
    x[12]     packing[48]  85
    x[13]     OBJ       177
    x[13]     packing[0]  83
    x[13]     packing[1]  150
    x[13]     packing[2]  97
    x[13]     packing[3]  31
    x[13]     packing[5]  162
    x[13]     packing[6]  121
    x[13]     packing[7]  19
    x[13]     packing[9]  68
    x[13]     packing[10]  102
    x[13]     packing[12]  40
    x[13]     packing[13]  186
    x[13]     packing[14]  65
    x[13]     packing[16]  29
    x[13]     packing[17]  181
    x[13]     packing[18]  24
    x[13]     packing[20]  193
    x[13]     packing[21]  176
    x[13]     packing[23]  20
    x[13]     packing[24]  83
    x[13]     packing[27]  27
    x[13]     packing[28]  124
    x[13]     packing[29]  69
    x[13]     packing[30]  194
    x[13]     packing[32]  40
    x[13]     packing[33]  168
    x[13]     packing[34]  26
    x[13]     packing[35]  73
    x[13]     packing[36]  38
    x[13]     packing[38]  186
    x[13]     packing[39]  51
    x[13]     packing[40]  116
    x[13]     packing[41]  163
    x[13]     packing[42]  26
    x[13]     packing[43]  36
    x[13]     packing[45]  10
    x[13]     packing[47]  82
    x[13]     packing[48]  16
    x[13]     packing[49]  88
    x[14]     OBJ       9
    x[14]     packing[0]  5
    x[14]     packing[3]  178
    x[14]     packing[4]  67
    x[14]     packing[5]  128
    x[14]     packing[6]  71
    x[14]     packing[7]  168
    x[14]     packing[8]  139
    x[14]     packing[9]  53
    x[14]     packing[10]  36
    x[14]     packing[11]  40
    x[14]     packing[12]  64
    x[14]     packing[13]  143
    x[14]     packing[15]  104
    x[14]     packing[16]  122
    x[14]     packing[17]  196
    x[14]     packing[18]  46
    x[14]     packing[20]  124
    x[14]     packing[21]  53
    x[14]     packing[22]  1
    x[14]     packing[23]  176
    x[14]     packing[24]  39
    x[14]     packing[25]  29
    x[14]     packing[26]  141
    x[14]     packing[27]  112
    x[14]     packing[28]  102
    x[14]     packing[29]  193
    x[14]     packing[31]  30
    x[14]     packing[32]  143
    x[14]     packing[33]  64
    x[14]     packing[36]  67
    x[14]     packing[37]  144
    x[14]     packing[38]  110
    x[14]     packing[39]  76
    x[14]     packing[40]  102
    x[14]     packing[41]  144
    x[14]     packing[42]  103
    x[14]     packing[43]  110
    x[14]     packing[44]  187
    x[14]     packing[45]  198
    x[14]     packing[46]  74
    x[14]     packing[47]  71
    x[14]     packing[48]  198
    x[14]     packing[49]  89
    x[15]     OBJ       185
    x[15]     packing[0]  24
    x[15]     packing[1]  21
    x[15]     packing[2]  145
    x[15]     packing[3]  46
    x[15]     packing[4]  88
    x[15]     packing[5]  185
    x[15]     packing[7]  102
    x[15]     packing[8]  189
    x[15]     packing[9]  103
    x[15]     packing[10]  174
    x[15]     packing[11]  92
    x[15]     packing[12]  59
    x[15]     packing[13]  168
    x[15]     packing[14]  21
    x[15]     packing[15]  27
    x[15]     packing[17]  154
    x[15]     packing[18]  3
    x[15]     packing[19]  36
    x[15]     packing[20]  198
    x[15]     packing[21]  116
    x[15]     packing[22]  167
    x[15]     packing[23]  186
    x[15]     packing[24]  18
    x[15]     packing[28]  46
    x[15]     packing[29]  10
    x[15]     packing[30]  111
    x[15]     packing[31]  46
    x[15]     packing[32]  126
    x[15]     packing[33]  26
    x[15]     packing[34]  178
    x[15]     packing[36]  168
    x[15]     packing[37]  24
    x[15]     packing[38]  112
    x[15]     packing[39]  48
    x[15]     packing[40]  195
    x[15]     packing[41]  145
    x[15]     packing[43]  87
    x[15]     packing[44]  38
    x[15]     packing[45]  14
    x[15]     packing[47]  91
    x[15]     packing[48]  133
    x[15]     packing[49]  58
    x[16]     OBJ       194
    x[16]     packing[0]  168
    x[16]     packing[1]  180
    x[16]     packing[2]  32
    x[16]     packing[3]  77
    x[16]     packing[4]  36
    x[16]     packing[5]  71
    x[16]     packing[6]  18
    x[16]     packing[7]  47
    x[16]     packing[8]  178
    x[16]     packing[9]  176
    x[16]     packing[10]  27
    x[16]     packing[11]  151
    x[16]     packing[14]  8
    x[16]     packing[15]  7
    x[16]     packing[16]  47
    x[16]     packing[17]  146
    x[16]     packing[18]  89
    x[16]     packing[19]  9
    x[16]     packing[21]  132
    x[16]     packing[22]  180
    x[16]     packing[23]  38
    x[16]     packing[25]  77
    x[16]     packing[26]  87
    x[16]     packing[27]  30
    x[16]     packing[29]  146
    x[16]     packing[32]  86
    x[16]     packing[33]  168
    x[16]     packing[35]  13
    x[16]     packing[36]  141
    x[16]     packing[37]  28
    x[16]     packing[38]  97
    x[16]     packing[39]  113
    x[16]     packing[40]  21
    x[16]     packing[41]  153
    x[16]     packing[42]  53
    x[16]     packing[44]  142
    x[16]     packing[45]  78
    x[16]     packing[46]  65
    x[16]     packing[48]  101
    x[16]     packing[49]  83
    x[16]     R59       1
    x[17]     OBJ       56
    x[17]     packing[0]  130
    x[17]     packing[1]  194
    x[17]     packing[2]  89
    x[17]     packing[5]  26
    x[17]     packing[6]  194
    x[17]     packing[8]  27
    x[17]     packing[9]  155
    x[17]     packing[10]  139
    x[17]     packing[12]  13
    x[17]     packing[13]  175
    x[17]     packing[14]  86
    x[17]     packing[15]  152
    x[17]     packing[17]  93
    x[17]     packing[18]  155
    x[17]     packing[19]  145
    x[17]     packing[21]  66
    x[17]     packing[22]  103
    x[17]     packing[23]  42
    x[17]     packing[24]  124
    x[17]     packing[26]  161
    x[17]     packing[28]  114
    x[17]     packing[30]  111
    x[17]     packing[32]  190
    x[17]     packing[33]  106
    x[17]     packing[34]  79
    x[17]     packing[35]  131
    x[17]     packing[36]  55
    x[17]     packing[37]  10
    x[17]     packing[38]  187
    x[17]     packing[39]  101
    x[17]     packing[40]  175
    x[17]     packing[41]  132
    x[17]     packing[42]  164
    x[17]     packing[43]  187
    x[17]     packing[44]  121
    x[17]     packing[45]  153
    x[17]     packing[46]  88
    x[17]     packing[47]  48
    x[17]     packing[49]  139
    x[18]     OBJ       110
    x[18]     packing[0]  41
    x[18]     packing[1]  99
    x[18]     packing[2]  172
    x[18]     packing[3]  171
    x[18]     packing[4]  197
    x[18]     packing[6]  139
    x[18]     packing[7]  3
    x[18]     packing[8]  21
    x[18]     packing[12]  69
    x[18]     packing[13]  125
    x[18]     packing[15]  79
    x[18]     packing[16]  36
    x[18]     packing[17]  28
    x[18]     packing[20]  166
    x[18]     packing[22]  121
    x[18]     packing[24]  37
    x[18]     packing[25]  49
    x[18]     packing[26]  97
    x[18]     packing[28]  81
    x[18]     packing[30]  140
    x[18]     packing[31]  24
    x[18]     packing[32]  47
    x[18]     packing[33]  155
    x[18]     packing[34]  195
    x[18]     packing[35]  2
    x[18]     packing[36]  171
    x[18]     packing[37]  102
    x[18]     packing[40]  137
    x[18]     packing[41]  123
    x[18]     packing[42]  143
    x[18]     packing[43]  86
    x[18]     packing[45]  42
    x[18]     packing[46]  18
    x[18]     packing[47]  159
    x[19]     OBJ       107
    x[19]     packing[0]  46
    x[19]     packing[1]  105
    x[19]     packing[2]  87
    x[19]     packing[3]  129
    x[19]     packing[4]  147
    x[19]     packing[5]  143
    x[19]     packing[6]  153
    x[19]     packing[7]  79
    x[19]     packing[8]  25
    x[19]     packing[9]  126
    x[19]     packing[10]  115
    x[19]     packing[11]  193
    x[19]     packing[12]  60
    x[19]     packing[13]  159
    x[19]     packing[15]  112
    x[19]     packing[16]  117
    x[19]     packing[19]  128
    x[19]     packing[20]  61
    x[19]     packing[21]  106
    x[19]     packing[22]  84
    x[19]     packing[26]  174
    x[19]     packing[27]  102
    x[19]     packing[28]  151
    x[19]     packing[29]  49
    x[19]     packing[31]  180
    x[19]     packing[33]  174
    x[19]     packing[34]  45
    x[19]     packing[35]  31
    x[19]     packing[36]  31
    x[19]     packing[37]  55
    x[19]     packing[40]  30
    x[19]     packing[41]  188
    x[19]     packing[42]  49
    x[19]     packing[43]  141
    x[19]     packing[44]  173
    x[19]     packing[45]  194
    x[19]     packing[46]  36
    x[19]     packing[47]  75
    x[19]     packing[48]  133
    x[19]     packing[49]  174
    x[20]     OBJ       192
    x[20]     packing[0]  18
    x[20]     packing[1]  27
    x[20]     packing[2]  182
    x[20]     packing[3]  8
    x[20]     packing[4]  68
    x[20]     packing[5]  150
    x[20]     packing[6]  20
    x[20]     packing[7]  127
    x[20]     packing[8]  188
    x[20]     packing[9]  57
    x[20]     packing[10]  6
    x[20]     packing[11]  108
    x[20]     packing[13]  64
    x[20]     packing[14]  118
    x[20]     packing[15]  113
    x[20]     packing[16]  36
    x[20]     packing[17]  129
    x[20]     packing[19]  77
    x[20]     packing[20]  105
    x[20]     packing[21]  163
    x[20]     packing[22]  72
    x[20]     packing[23]  40
    x[20]     packing[24]  95
    x[20]     packing[25]  112
    x[20]     packing[26]  109
    x[20]     packing[28]  142
    x[20]     packing[29]  44
    x[20]     packing[30]  168
    x[20]     packing[32]  160
    x[20]     packing[33]  193
    x[20]     packing[34]  108
    x[20]     packing[38]  185
    x[20]     packing[39]  37
    x[20]     packing[40]  88
    x[20]     packing[41]  35
    x[20]     packing[42]  176
    x[20]     packing[43]  113
    x[20]     packing[46]  49
    x[20]     packing[47]  49
    x[20]     packing[48]  145
    x[20]     packing[49]  47
    x[20]     R59       1
    MARKER    'MARKER'                 'INTEND'
RHS
    RHS1      packing[0]  672
    RHS1      packing[1]  758
    RHS1      packing[2]  1024
    RHS1      packing[3]  834
    RHS1      packing[4]  898
    RHS1      packing[5]  905
    RHS1      packing[6]  583
    RHS1      packing[7]  505
    RHS1      packing[8]  983
    RHS1      packing[9]  904
    RHS1      packing[10]  604
    RHS1      packing[11]  792
    RHS1      packing[12]  732
    RHS1      packing[13]  996
    RHS1      packing[14]  641
    RHS1      packing[15]  630
    RHS1      packing[16]  570
    RHS1      packing[17]  883
    RHS1      packing[18]  659
    RHS1      packing[19]  648
    RHS1      packing[20]  731
    RHS1      packing[21]  750
    RHS1      packing[22]  630
    RHS1      packing[23]  577
    RHS1      packing[24]  648
    RHS1      packing[25]  439
    RHS1      packing[26]  965
    RHS1      packing[27]  575
    RHS1      packing[28]  969
    RHS1      packing[29]  717
    RHS1      packing[30]  772
    RHS1      packing[31]  568
    RHS1      packing[32]  996
    RHS1      packing[33]  909
    RHS1      packing[34]  707
    RHS1      packing[35]  489
    RHS1      packing[36]  811
    RHS1      packing[37]  623
    RHS1      packing[38]  1003
    RHS1      packing[39]  479
    RHS1      packing[40]  761
    RHS1      packing[41]  1147
    RHS1      packing[42]  883
    RHS1      packing[43]  791
    RHS1      packing[44]  694
    RHS1      packing[45]  818
    RHS1      packing[46]  518
    RHS1      packing[47]  652
    RHS1      packing[48]  831
    RHS1      packing[49]  749
    RHS1      R59       5
BOUNDS
 BV BND1      x[1]    
 BV BND1      x[2]    
 BV BND1      x[3]    
 BV BND1      x[4]    
 BV BND1      x[5]    
 BV BND1      x[6]    
 BV BND1      x[7]    
 BV BND1      x[8]    
 BV BND1      x[9]    
 BV BND1      x[10]   
 BV BND1      x[11]   
 BV BND1      x[12]   
 BV BND1      x[13]   
 BV BND1      x[14]   
 BV BND1      x[15]   
 BV BND1      x[16]   
 BV BND1      x[17]   
 BV BND1      x[18]   
 BV BND1      x[19]   
 BV BND1      x[20]   
ENDATA
